rectOffsets = 
    [|0,0,3,3|0,0,3,3|0,0,3,4|0,0,4,3|0,0,3,5|0,0,5,3|0,0,3,6|0,0,6,3|0,0,3,7|0,0,7,3|0,0,3,8|0,0,8,3|0,0,3,10|0,0,10,3|0,0,3,11|0,0,11,3|0,0,4,3|0,0,3,4|0,0,4,4|0,0,4,4|0,0,4,5|0,0,5,4|0,0,4,6|0,0,6,4|0,0,5,3|0,0,3,5|0,0,5,4|0,0,4,5|0,0,5,5|0,0,5,5|0,0,5,6|0,0,6,5|];

shape = array1d(1..32, [{1}, {2}, {3}, {4}, {5}, {6}, {7}, {8}, {9}, {10},
    {11}, {12}, {13}, {14}, {15}, {16}, {17}, {18}, {19}, {20}, {21},
    {22}, {23}, {24}, {25}, {26}, {27}, {28}, {29}, {30}, {31}, {32}]);

validshapes = array1d(1..16, [{1,2}, {3,4}, {5,6}, {7,8}, {9,10}, {11,12}, {13,14},
    {15,16}, {17,18}, {19,20}, {21,22}, {23,24}, {25,26}, {27,28},
    {29,30}, {31,32}]);

dx = array1d(1..16, [3, 3, 3, 3, 3, 3, 3, 3, 4, 4, 4, 4, 5, 5, 5, 5]);

dy = array1d(1..16, [3, 4, 5, 6, 7, 8, 10, 11, 3, 4, 5, 6, 3, 4, 5, 6]);

w = 18;

n = 16;

o = 32;

